Fe-BCC
1.0
        2.8385887146         0.0000000000         0.0000000000
        0.0000000000         2.8385887146         0.0000000000
        0.0000000000         0.0000000000        14.0000000000
   Fe
    8
Cartesian
     0.000000000         0.000000000         6.000000000
     1.419294357         1.419294357         7.419294357
     0.000000000         0.000000000         8.838588715
     1.419294357         1.419294357        10.257883072
     0.000000000         0.000000000        11.677177429
     1.419294357         1.419294357        13.096471786
     0.000000000         0.000000000        14.515766144
     1.419294357         1.419294357        15.935060501